SDVRP instances/p02/p02_1050_tsplib0_split0.vrp
NAME:.\SDVRP_split
BEST_KNOWN: 0
COMMENT: 0
DIMENSION: 402
CAPACITY: 140
EDGE_WEIGHT_FORMAT: FUNCTION
EDGE_WEIGHT_TYPE: EXACT_2D
NODE_COORD_SECTION
1 0.00000 0.00000
2 -18 -18
3 -18 -18
4 -18 -18
5 -18 -18
6 -18 -18
7 -18 -18
8 -18 -18
9 -4 -14
10 -4 -14
11 -4 -14
12 -19 5
13 -19 5
14 -19 5
15 -19 5
16 -19 5
17 -19 5
18 -19 5
19 5 -5
20 5 -5
21 5 -5
22 5 -5
23 5 -5
24 15 -20
25 15 -20
26 15 -20
27 15 -20
28 -7 -6
29 -7 -6
30 -7 -6
31 -7 -6
32 -7 -6
33 -7 -6
34 -7 -6
35 -7 -6
36 10 10
37 10 10
38 10 10
39 10 10
40 10 10
41 10 10
42 10 10
43 10 10
44 15 5
45 15 5
46 15 5
47 15 5
48 15 5
49 15 5
50 15 5
51 -14 19
52 -14 19
53 -14 19
54 -14 19
55 -14 19
56 -14 19
57 0 26
58 0 26
59 15 25
60 15 25
61 15 25
62 15 25
63 15 25
64 -5 11
65 -5 11
66 -5 11
67 22 -5
68 22 -5
69 22 -5
70 22 -5
71 22 -5
72 22 -5
73 22 -5
74 22 17
75 22 17
76 22 17
77 22 -16
78 22 -16
79 22 -16
80 22 -16
81 22 -16
82 22 -16
83 22 -16
84 -19 -4
85 -19 -4
86 -19 -4
87 -7 4
88 -7 4
89 -7 4
90 -7 4
91 -7 4
92 -31 16
93 -31 16
94 22 8
95 22 8
96 22 8
97 22 8
98 22 8
99 22 8
100 22 8
101 26 -26
102 26 -26
103 26 -26
104 26 -26
105 4 -27
106 4 -27
107 4 -27
108 4 -27
109 4 -27
110 4 -27
111 -14 -27
112 -14 -27
113 -14 -27
114 -29 -12
115 -29 -12
116 -29 -12
117 -29 -12
118 -33 3
119 -33 3
120 -33 3
121 -33 3
122 -33 3
123 -33 3
124 -23 24
125 -23 24
126 -23 24
127 -23 24
128 1 6
129 1 6
130 1 6
131 1 6
132 1 6
133 1 6
134 1 6
135 1 6
136 1 6
137 15 -6
138 15 -6
139 -5 -24
140 -5 -24
141 -5 -24
142 12 -14
143 12 -14
144 12 -14
145 3 -14
146 3 -14
147 3 -14
148 3 -14
149 3 -14
150 3 -14
151 -9 36
152 -9 36
153 -9 36
154 -9 36
155 -9 36
156 -9 36
157 -9 36
158 -18 13
159 -18 13
160 -18 13
161 -18 13
162 -14 -11
163 -14 -11
164 -14 -11
165 -14 -11
166 -14 -11
167 -14 -11
168 10 0
169 10 0
170 10 0
171 10 0
172 10 0
173 10 0
174 10 0
175 15 10
176 15 10
177 15 10
178 15 10
179 15 10
180 15 10
181 15 10
182 14 -30
183 14 -30
184 14 -30
185 14 -30
186 14 -30
187 14 -30
188 14 -30
189 20 -25
190 20 -25
191 20 -25
192 7 26
193 7 26
194 7 26
195 7 26
196 7 26
197 7 26
198 7 26
199 7 26
200 -10 20
201 -10 20
202 -10 20
203 -10 20
204 -10 20
205 -10 20
206 -10 20
207 -10 20
208 -10 10
209 -10 10
210 -10 10
211 -10 10
212 -10 10
213 -10 10
214 -28 -23
215 -28 -23
216 -28 -23
217 -28 -23
218 -28 -23
219 -25 -26
220 -25 -26
221 -25 -26
222 -25 -26
223 -24 -21
224 -24 -21
225 -24 -21
226 -19 8
227 -19 8
228 -19 8
229 -19 8
230 -19 8
231 10 -10
232 10 -10
233 10 -10
234 11 2
235 11 2
236 10 -25
237 10 -25
238 10 -25
239 10 -25
240 10 -25
241 10 -25
242 10 -25
243 10 -25
244 8 -19
245 8 -19
246 8 -19
247 8 -19
248 8 -19
249 -28 -2
250 -28 -2
251 -28 -2
252 -28 -2
253 -28 -2
254 -28 -2
255 -28 -2
256 -25 16
257 -25 16
258 -25 16
259 -25 16
260 -25 16
261 -25 16
262 -25 16
263 -25 16
264 -11 -1
265 -11 -1
266 -11 -1
267 -11 -1
268 -11 -1
269 14 -2
270 14 -2
271 14 -2
272 14 -2
273 15 17
274 15 17
275 15 17
276 15 17
277 15 17
278 27 1
279 27 1
280 27 1
281 27 1
282 27 1
283 -30 30
284 -30 30
285 -30 30
286 -30 30
287 -30 30
288 -30 30
289 -30 30
290 -30 30
291 -30 30
292 -34 -15
293 -34 -15
294 -34 -15
295 -34 -15
296 -34 -15
297 -34 -15
298 -34 -15
299 -34 -15
300 25 -13
301 25 -13
302 25 -13
303 25 -13
304 0 20
305 0 20
306 0 20
307 0 20
308 0 20
309 0 20
310 0 20
311 30 24
312 30 24
313 30 24
314 24 -36
315 24 -36
316 24 -36
317 24 -36
318 24 -36
319 -4 -34
320 -4 -34
321 -4 -34
322 -10 -20
323 -20 -10
324 -20 -10
325 -20 -10
326 -20 -10
327 -25 -35
328 -25 -35
329 -25 -35
330 10 30
331 10 30
332 10 30
333 10 30
334 10 30
335 10 30
336 17 32
337 17 32
338 17 32
339 17 32
340 17 32
341 17 32
342 17 32
343 5 2
344 5 2
345 5 2
346 5 2
347 5 2
348 5 2
349 5 2
350 -2 -7
351 -2 -7
352 -2 -7
353 -2 -7
354 -2 -7
355 -2 -7
356 10 -36
357 10 -36
358 10 -36
359 10 -36
360 10 -36
361 10 -36
362 10 -36
363 10 -36
364 10 -36
365 26 -32
366 26 -32
367 26 -32
368 26 -32
369 26 -32
370 26 -32
371 26 -32
372 26 -32
373 19 -35
374 19 -35
375 19 -35
376 19 -35
377 19 -35
378 19 -35
379 19 -35
380 -5 20
381 -5 20
382 -5 20
383 -5 20
384 -13 -16
385 -13 -16
386 -13 -16
387 -13 -16
388 -13 -16
389 -13 -16
390 -13 -16
391 0 -20
392 0 -20
393 0 -20
394 0 -20
395 0 -20
396 0 -20
397 0 -20
398 0 -20
399 0 -20
400 0 -3
401 0 -3
402 0 -3
DEMAND_SECTION
1 0
2 28
3 28
4 1
5 1
6 1
7 1
8 1
9 28
10 7
11 1
12 14
13 7
14 1
15 1
16 1
17 1
18 1
19 28
20 14
21 1
22 1
23 1
24 28
25 28
26 7
27 1
28 28
29 28
30 1
31 1
32 1
33 1
34 1
35 1
36 28
37 7
38 1
39 1
40 1
41 1
42 1
43 1
44 14
45 1
46 1
47 1
48 1
49 1
50 1
51 14
52 7
53 1
54 1
55 1
56 1
57 14
58 1
59 28
60 28
61 1
62 1
63 1
64 28
65 7
66 1
67 28
68 7
69 1
70 1
71 1
72 1
73 1
74 28
75 14
76 1
77 28
78 14
79 7
80 1
81 1
82 1
83 1
84 28
85 1
86 1
87 14
88 1
89 1
90 1
91 1
92 28
93 14
94 28
95 28
96 1
97 1
98 1
99 1
100 1
101 28
102 14
103 1
104 1
105 14
106 1
107 1
108 1
109 1
110 1
111 28
112 14
113 7
114 28
115 14
116 7
117 1
118 28
119 14
120 1
121 1
122 1
123 1
124 28
125 28
126 1
127 1
128 28
129 14
130 7
131 1
132 1
133 1
134 1
135 1
136 1
137 14
138 1
139 28
140 28
141 1
142 14
143 7
144 1
145 14
146 1
147 1
148 1
149 1
150 1
151 28
152 28
153 1
154 1
155 1
156 1
157 1
158 28
159 28
160 1
161 1
162 28
163 28
164 1
165 1
166 1
167 1
168 14
169 7
170 1
171 1
172 1
173 1
174 1
175 28
176 28
177 1
178 1
179 1
180 1
181 1
182 28
183 7
184 1
185 1
186 1
187 1
188 1
189 28
190 28
191 1
192 28
193 7
194 1
195 1
196 1
197 1
198 1
199 1
200 28
201 7
202 1
203 1
204 1
205 1
206 1
207 1
208 28
209 28
210 1
211 1
212 1
213 1
214 14
215 7
216 1
217 1
218 1
219 14
220 1
221 1
222 1
223 28
224 14
225 7
226 28
227 14
228 7
229 1
230 1
231 28
232 28
233 7
234 28
235 1
236 28
237 7
238 1
239 1
240 1
241 1
242 1
243 1
244 28
245 7
246 1
247 1
248 1
249 28
250 28
251 1
252 1
253 1
254 1
255 1
256 28
257 14
258 1
259 1
260 1
261 1
262 1
263 1
264 28
265 14
266 7
267 1
268 1
269 28
270 14
271 7
272 1
273 14
274 1
275 1
276 1
277 1
278 28
279 28
280 7
281 1
282 1
283 28
284 14
285 7
286 1
287 1
288 1
289 1
290 1
291 1
292 28
293 14
294 7
295 1
296 1
297 1
298 1
299 1
300 28
301 1
302 1
303 1
304 28
305 14
306 7
307 1
308 1
309 1
310 1
311 28
312 7
313 1
314 28
315 1
316 1
317 1
318 1
319 28
320 28
321 7
322 28
323 28
324 1
325 1
326 1
327 28
328 1
329 1
330 28
331 1
332 1
333 1
334 1
335 1
336 28
337 7
338 1
339 1
340 1
341 1
342 1
343 28
344 28
345 1
346 1
347 1
348 1
349 1
350 14
351 1
352 1
353 1
354 1
355 1
356 28
357 28
358 7
359 1
360 1
361 1
362 1
363 1
364 1
365 28
366 28
367 1
368 1
369 1
370 1
371 1
372 1
373 28
374 28
375 7
376 1
377 1
378 1
379 1
380 28
381 28
382 7
383 1
384 28
385 28
386 1
387 1
388 1
389 1
390 1
391 28
392 28
393 7
394 1
395 1
396 1
397 1
398 1
399 1
400 14
401 1
402 1
DEPOT_SECTION
1
-1
EOF