SDVRP instances/p02/p02_1050_tsplib0_split0.sol
401 -4 7 5 3 6 1 2 112 110 111 321 -8 10 9 396 390 398 393 394 397 395 392 391 148 144 145 147 149 146 399 400 401 -16 14 17 13 11 15 12 225 227 226 229 228 157 159 160 158 -18 19 20 21 22 -30 32 34 29 33 31 27 28 265 263 264 208 -35 36 175 174 176 177 178 180 179 45 48 43 233 -41 40 37 39 38 42 276 275 273 274 272 60 62 340 336 338 339 341 335 337 329 331 334 332 330 333 194 192 191 195 197 193 196 198 -49 44 47 46 97 99 95 94 93 98 96 280 279 277 281 278 234 -55 50 51 53 52 54 288 286 283 284 282 285 287 289 290 123 124 126 125 -58 61 59 310 312 311 74 75 73 -63 65 64 206 202 199 203 379 382 381 380 -80 77 79 78 81 76 82 302 301 300 299 72 66 68 67 69 70 71 137 136 -90 88 86 87 89 91 92 258 262 260 259 255 261 256 257 207 209 211 212 210 -101 102 103 100 370 367 366 365 364 368 371 369 314 316 315 317 313 -104 106 105 107 108 109 320 318 319 138 139 140 -116 115 114 113 294 293 291 295 298 297 292 296 322 325 323 324 -117 118 119 121 122 120 252 254 253 248 249 251 250 83 84 85 267 266 -131 129 134 135 132 128 127 130 133 343 342 348 344 346 347 345 -141 143 142 26 25 24 23 247 245 244 243 246 -165 163 166 161 164 162 383 386 385 387 384 388 389 -169 171 172 170 173 168 167 269 270 268 271 231 232 230 -190 189 188 181 182 185 184 187 186 183 235 236 241 240 239 237 238 242 -204 201 205 200 152 151 150 153 155 156 154 57 56 303 304 307 306 309 308 305 -224 222 223 216 217 215 213 214 219 218 220 221 327 326 328 350 353 354 351 349 352 -361 355 362 356 357 358 360 359 363 374 376 372 373 377 375 378 0 





OBJ=
1528.664
BEST_KNOWN=
0.000